NAME : gr24.7233.tour
COMMENT : Cost = 586_7233
COMMENT : Found by LKH [Keld Helsgaun] Thu Nov 16 17:33:46 2017
TYPE : TOUR
DIMENSION : 43
TOUR_SECTION
1
12
25
6
26
4
27
24
28
7
29
8
30
5
31
21
32
10
33
3
34
23
35
17
36
11
37
14
38
9
13
40
22
18
39
15
41
2
20
42
19
43
16
-1
EOF
